c FILE: i080-035

c SOURCE: From steinlib

c DESCRIPTION: Steinlib instance with 80 nodes and 160 edges.

p edge 80 160
e 1 11
e 1 23
e 1 45
e 1 53
e 2 5
e 2 35
e 2 36
e 2 41
e 2 51
e 2 52
e 2 54
e 3 18
e 3 40
e 4 34
e 4 43
e 4 73
e 5 30
e 5 46
e 6 9
e 6 46
e 6 78
e 7 24
e 7 43
e 7 68
e 8 23
e 8 25
e 8 37
e 8 65
e 9 36
e 9 41
e 9 66
e 9 68
e 9 69
e 10 14
e 10 19
e 10 45
e 10 58
e 10 63
e 11 13
e 11 34
e 11 42
e 11 66
e 11 71
e 11 75
e 12 22
e 12 52
e 12 60
e 13 36
e 13 37
e 14 15
e 14 23
e 14 33
e 14 70
e 15 41
e 15 44
e 15 74
e 15 78
e 16 22
e 16 39
e 16 55
e 17 27
e 17 37
e 17 43
e 17 59
e 18 39
e 18 48
e 18 51
e 18 60
e 19 44
e 19 58
e 19 74
e 20 23
e 20 75
e 20 76
e 21 30
e 21 34
e 21 72
e 22 56
e 22 78
e 23 26
e 24 49
e 24 72
e 25 38
e 25 40
e 25 75
e 26 31
e 26 40
e 26 57
e 27 29
e 27 52
e 27 62
e 27 69
e 27 70
e 27 75
e 27 79
e 28 42
e 28 71
e 28 72
e 30 48
e 30 56
e 30 66
e 32 42
e 32 61
e 33 70
e 33 79
e 34 71
e 35 58
e 35 70
e 35 72
e 36 54
e 37 46
e 37 49
e 37 72
e 38 43
e 38 52
e 38 59
e 39 51
e 39 62
e 40 65
e 41 52
e 41 59
e 41 67
e 43 52
e 43 78
e 44 55
e 44 66
e 45 49
e 45 58
e 45 62
e 45 74
e 45 79
e 47 62
e 48 60
e 49 64
e 50 67
e 52 57
e 52 75
e 52 80
e 53 67
e 53 68
e 55 67
e 56 63
e 58 60
e 59 66
e 59 68
e 60 61
e 62 69
e 62 80
e 63 70
e 64 72
e 65 67
e 66 67
e 66 72
e 66 79
e 67 78
e 68 72
e 70 77
e 72 78
e 76 78
e 77 80
